\* Project_gram_sund *\
Minimize
OBJ: Z_0 + Z_1 + Z_3
Subject To
_C1: X_0 + X_1 + X_3 = 5
_C10: y_0_1 + y_0_3 <= 1
_C100: y_3_2 + y_3_6 <= 1
_C101: y_3_3 + y_3_6 <= 1
_C102: y_3_4 + y_3_6 <= 1
_C103: y_3_6 + y_3_8 <= 1
_C104: y_3_6 + y_3_9 <= 1
_C105: y_3_10 + y_3_6 <= 1
_C106: y_3_11 + y_3_6 <= 1
_C107: y_3_12 + y_3_6 <= 1
_C108: y_3_13 + y_3_6 <= 1
_C109: y_3_14 + y_3_6 <= 1
_C11: y_0_1 + y_0_4 <= 1
_C110: y_3_1 + y_3_7 <= 1
_C111: y_3_2 + y_3_7 <= 1
_C112: y_3_3 + y_3_7 <= 1
_C113: y_3_4 + y_3_7 <= 1
_C114: y_3_5 + y_3_7 <= 1
_C115: y_3_7 + y_3_9 <= 1
_C116: y_3_10 + y_3_7 <= 1
_C117: y_3_11 + y_3_7 <= 1
_C118: y_3_12 + y_3_7 <= 1
_C119: y_3_13 + y_3_7 <= 1
_C12: y_0_2 + y_0_4 <= 1
_C120: y_3_14 + y_3_7 <= 1
_C121: y_3_1 + y_3_8 <= 1
_C122: y_3_2 + y_3_8 <= 1
_C123: y_3_3 + y_3_8 <= 1
_C124: y_3_4 + y_3_8 <= 1
_C125: y_3_5 + y_3_8 <= 1
_C126: y_3_6 + y_3_8 <= 1
_C127: y_3_10 + y_3_8 <= 1
_C128: y_3_11 + y_3_8 <= 1
_C129: y_3_12 + y_3_8 <= 1
_C13: y_0_1 + y_0_3 <= 1
_C130: y_3_13 + y_3_8 <= 1
_C131: y_3_14 + y_3_8 <= 1
_C132: y_3_1 + y_3_9 <= 1
_C133: y_3_2 + y_3_9 <= 1
_C134: y_3_3 + y_3_9 <= 1
_C135: y_3_4 + y_3_9 <= 1
_C136: y_3_5 + y_3_9 <= 1
_C137: y_3_6 + y_3_9 <= 1
_C138: y_3_7 + y_3_9 <= 1
_C139: y_3_11 + y_3_9 <= 1
_C14: y_0_1 + y_0_4 <= 1
_C140: y_3_12 + y_3_9 <= 1
_C141: y_3_13 + y_3_9 <= 1
_C142: y_3_14 + y_3_9 <= 1
_C143: y_3_1 + y_3_10 <= 1
_C144: y_3_10 + y_3_2 <= 1
_C145: y_3_10 + y_3_3 <= 1
_C146: y_3_10 + y_3_4 <= 1
_C147: y_3_10 + y_3_5 <= 1
_C148: y_3_10 + y_3_6 <= 1
_C149: y_3_10 + y_3_7 <= 1
_C15: y_0_2 + y_0_4 <= 1
_C150: y_3_10 + y_3_8 <= 1
_C151: y_3_10 + y_3_12 <= 1
_C152: y_3_10 + y_3_13 <= 1
_C153: y_3_10 + y_3_14 <= 1
_C154: y_3_1 + y_3_11 <= 1
_C155: y_3_11 + y_3_2 <= 1
_C156: y_3_11 + y_3_3 <= 1
_C157: y_3_11 + y_3_4 <= 1
_C158: y_3_11 + y_3_5 <= 1
_C159: y_3_11 + y_3_6 <= 1
_C16: x_1_1 - y_1_1 <= 0
_C160: y_3_11 + y_3_7 <= 1
_C161: y_3_11 + y_3_8 <= 1
_C162: y_3_11 + y_3_9 <= 1
_C163: y_3_11 + y_3_13 <= 1
_C164: y_3_11 + y_3_14 <= 1
_C165: y_3_1 + y_3_12 <= 1
_C166: y_3_12 + y_3_2 <= 1
_C167: y_3_12 + y_3_3 <= 1
_C168: y_3_12 + y_3_4 <= 1
_C169: y_3_12 + y_3_5 <= 1
_C17: x_1_2 - y_1_2 <= 0
_C170: y_3_12 + y_3_6 <= 1
_C171: y_3_12 + y_3_7 <= 1
_C172: y_3_12 + y_3_8 <= 1
_C173: y_3_12 + y_3_9 <= 1
_C174: y_3_10 + y_3_12 <= 1
_C175: y_3_12 + y_3_14 <= 1
_C176: y_3_1 + y_3_13 <= 1
_C177: y_3_13 + y_3_2 <= 1
_C178: y_3_13 + y_3_3 <= 1
_C179: y_3_13 + y_3_4 <= 1
_C18: x_1_3 - y_1_3 <= 0
_C180: y_3_13 + y_3_5 <= 1
_C181: y_3_13 + y_3_6 <= 1
_C182: y_3_13 + y_3_7 <= 1
_C183: y_3_13 + y_3_8 <= 1
_C184: y_3_13 + y_3_9 <= 1
_C185: y_3_10 + y_3_13 <= 1
_C186: y_3_11 + y_3_13 <= 1
_C187: y_3_1 + y_3_14 <= 1
_C188: y_3_14 + y_3_2 <= 1
_C189: y_3_14 + y_3_3 <= 1
_C19: x_1_1 + x_1_2 + x_1_3 = 1
_C190: y_3_14 + y_3_4 <= 1
_C191: y_3_14 + y_3_5 <= 1
_C192: y_3_14 + y_3_6 <= 1
_C193: y_3_14 + y_3_7 <= 1
_C194: y_3_14 + y_3_8 <= 1
_C195: y_3_14 + y_3_9 <= 1
_C196: y_3_10 + y_3_14 <= 1
_C197: y_3_11 + y_3_14 <= 1
_C198: y_3_12 + y_3_14 <= 1
_C2: x_0_1 - y_0_1 <= 0
_C20: y_1_1 + y_1_2 + y_1_3 <= 2
_C21: - X_1 + 4 x_1_1 + 7 x_1_2 + 10 x_1_3 = 0
_C22: - Z_1 + x_1_1 + 14 x_1_2 + 95 x_1_3 = 0
_C23: y_1_1 + y_1_3 <= 1
_C24: y_1_1 + y_1_3 <= 1
_C25: x_3_1 - y_3_1 <= 0
_C26: x_3_2 - y_3_2 <= 0
_C27: x_3_3 - y_3_3 <= 0
_C28: x_3_4 - y_3_4 <= 0
_C29: x_3_5 - y_3_5 <= 0
_C3: x_0_2 - y_0_2 <= 0
_C30: x_3_6 - y_3_6 <= 0
_C31: x_3_7 - y_3_7 <= 0
_C32: x_3_8 - y_3_8 <= 0
_C33: x_3_9 - y_3_9 <= 0
_C34: x_3_10 - y_3_10 <= 0
_C35: x_3_11 - y_3_11 <= 0
_C36: x_3_12 - y_3_12 <= 0
_C37: x_3_13 - y_3_13 <= 0
_C38: x_3_14 - y_3_14 <= 0
_C39: x_3_1 + x_3_10 + x_3_11 + x_3_12 + x_3_13 + x_3_14 + x_3_2 + x_3_3
 + x_3_4 + x_3_5 + x_3_6 + x_3_7 + x_3_8 + x_3_9 = 1
_C4: x_0_3 - y_0_3 <= 0
_C40: y_3_1 + y_3_10 + y_3_11 + y_3_12 + y_3_13 + y_3_14 + y_3_2 + y_3_3
 + y_3_4 + y_3_5 + y_3_6 + y_3_7 + y_3_8 + y_3_9 <= 2
_C41: - X_3 + 9 x_3_10 + 10 x_3_11 + 11 x_3_12 + 12 x_3_13 + 13 x_3_14 + x_3_2
 + 2 x_3_3 + 3 x_3_4 + 4 x_3_5 + 5 x_3_6 + 6 x_3_7 + 7 x_3_8 + 8 x_3_9 = 0
_C42: - Z_3 + 2 x_3_1 + 20 x_3_10 + 22 x_3_11 + 25 x_3_12 + 34 x_3_13
 + 39 x_3_14 + 2.5 x_3_2 + 3 x_3_3 + 4 x_3_4 + 7 x_3_5 + 15 x_3_6 + 16 x_3_7
 + 17 x_3_8 + 19 x_3_9 = 0
_C43: y_3_1 + y_3_3 <= 1
_C44: y_3_1 + y_3_4 <= 1
_C45: y_3_1 + y_3_5 <= 1
_C46: y_3_1 + y_3_6 <= 1
_C47: y_3_1 + y_3_7 <= 1
_C48: y_3_1 + y_3_8 <= 1
_C49: y_3_1 + y_3_9 <= 1
_C5: x_0_4 - y_0_4 <= 0
_C50: y_3_1 + y_3_10 <= 1
_C51: y_3_1 + y_3_11 <= 1
_C52: y_3_1 + y_3_12 <= 1
_C53: y_3_1 + y_3_13 <= 1
_C54: y_3_1 + y_3_14 <= 1
_C55: y_3_2 + y_3_4 <= 1
_C56: y_3_2 + y_3_5 <= 1
_C57: y_3_2 + y_3_6 <= 1
_C58: y_3_2 + y_3_7 <= 1
_C59: y_3_2 + y_3_8 <= 1
_C6: x_0_1 + x_0_2 + x_0_3 + x_0_4 = 1
_C60: y_3_2 + y_3_9 <= 1
_C61: y_3_10 + y_3_2 <= 1
_C62: y_3_11 + y_3_2 <= 1
_C63: y_3_12 + y_3_2 <= 1
_C64: y_3_13 + y_3_2 <= 1
_C65: y_3_14 + y_3_2 <= 1
_C66: y_3_1 + y_3_3 <= 1
_C67: y_3_3 + y_3_5 <= 1
_C68: y_3_3 + y_3_6 <= 1
_C69: y_3_3 + y_3_7 <= 1
_C7: y_0_1 + y_0_2 + y_0_3 + y_0_4 <= 2
_C70: y_3_3 + y_3_8 <= 1
_C71: y_3_3 + y_3_9 <= 1
_C72: y_3_10 + y_3_3 <= 1
_C73: y_3_11 + y_3_3 <= 1
_C74: y_3_12 + y_3_3 <= 1
_C75: y_3_13 + y_3_3 <= 1
_C76: y_3_14 + y_3_3 <= 1
_C77: y_3_1 + y_3_4 <= 1
_C78: y_3_2 + y_3_4 <= 1
_C79: y_3_4 + y_3_6 <= 1
_C8: - X_0 + 2 x_0_2 + 3 x_0_3 + 7 x_0_4 = 0
_C80: y_3_4 + y_3_7 <= 1
_C81: y_3_4 + y_3_8 <= 1
_C82: y_3_4 + y_3_9 <= 1
_C83: y_3_10 + y_3_4 <= 1
_C84: y_3_11 + y_3_4 <= 1
_C85: y_3_12 + y_3_4 <= 1
_C86: y_3_13 + y_3_4 <= 1
_C87: y_3_14 + y_3_4 <= 1
_C88: y_3_1 + y_3_5 <= 1
_C89: y_3_2 + y_3_5 <= 1
_C9: - Z_0 + 3 x_0_1 + 11 x_0_2 + 9 x_0_3 + 13 x_0_4 = 0
_C90: y_3_3 + y_3_5 <= 1
_C91: y_3_5 + y_3_7 <= 1
_C92: y_3_5 + y_3_8 <= 1
_C93: y_3_5 + y_3_9 <= 1
_C94: y_3_10 + y_3_5 <= 1
_C95: y_3_11 + y_3_5 <= 1
_C96: y_3_12 + y_3_5 <= 1
_C97: y_3_13 + y_3_5 <= 1
_C98: y_3_14 + y_3_5 <= 1
_C99: y_3_1 + y_3_6 <= 1
Bounds
 x_0_1 <= 1
 x_0_2 <= 1
 x_0_3 <= 1
 x_0_4 <= 1
 x_1_1 <= 1
 x_1_2 <= 1
 x_1_3 <= 1
 x_3_1 <= 1
 x_3_10 <= 1
 x_3_11 <= 1
 x_3_12 <= 1
 x_3_13 <= 1
 x_3_14 <= 1
 x_3_2 <= 1
 x_3_3 <= 1
 x_3_4 <= 1
 x_3_5 <= 1
 x_3_6 <= 1
 x_3_7 <= 1
 x_3_8 <= 1
 x_3_9 <= 1
Binaries
y_0_1
y_0_2
y_0_3
y_0_4
y_1_1
y_1_2
y_1_3
y_3_1
y_3_10
y_3_11
y_3_12
y_3_13
y_3_14
y_3_2
y_3_3
y_3_4
y_3_5
y_3_6
y_3_7
y_3_8
y_3_9
End
